multiobj/instances/reallike/Ter-rl-5-3-0.80-0.80-1.0-2.in
5 3
0 46 118 40 96 
46 0 88 10 53 
118 88 0 85 53 
40 10 85 0 56 
96 53 53 56 0 
0 0 0 406 0 
0 0 77683 4 0 
0 77683 0 0 147 
406 4 0 0 1 
0 0 147 1 0 
0 0 0 18928 0 
0 0 38747 1 0 
0 38747 0 0 37 
18928 1 0 0 6 
0 0 37 6 0 
0 0 0 3 0 
0 0 107 14 0 
0 107 0 0 118 
3 14 0 0 743 
0 0 118 743 0 
