multiobj/solutions/reallike/Ter-rl-5-3-0.80-0.80-1.0-2.out
6 3
2 1 3 4 0 
1609072 2785526 156038 
0 1 3 4 2 
1657132 4416148 103018 
0 3 1 2 4 
1665844 5246676 96494 
2 0 3 4 1 
6261490 5107696 92684 
1 2 4 3 0 
8271502 4493496 95878 
0 2 4 3 1 
8283160 5625634 41330 
